words_train/words_383_SAT.qaiger
aag 101 24 0 1 77
34
6
40
24
32
26
30
28
36
20
46
12
2
44
10
14
38
8
22
4
42
48
18
16
203
50 41 25
52 39 23
54 37 21
56 35 19
58 56 54
60 58 52
62 60 50
64 43 27
66 64 62
68 45 29
70 68 66
72 47 31
74 72 70
76 73 71
78 77 75
80 4 2
82 80 6
84 82 8
86 84 10
88 86 12
90 88 14
92 89 15
94 93 91
96 95 78
98 61 51
100 99 63
102 83 9
104 103 85
106 105 100
108 59 53
110 109 61
112 57 2
114 113 5
116 115 55
118 117 59
120 81 6
122 120 119
124 123 110
126 125 107
128 118 81
130 129 7
132 131 121
134 133 126
136 65 63
138 137 67
140 85 11
142 141 87
144 142 139
146 104 101
148 147 145
150 148 135
152 143 138
154 69 67
156 155 71
158 87 13
160 159 89
162 161 156
164 163 153
166 164 151
168 94 79
170 160 157
172 171 169
174 172 167
176 175 97
178 49 33
180 178 91
182 179 90
184 183 181
186 74 17
188 75 16
190 189 187
192 191 185
194 190 184
196 195 193
198 197 176
200 196 177
202 201 199
i0 2 y[0]
i1 2 z[2]
i2 2 y[3]
i3 1 x[3]
i4 1 x[7]
i5 1 x[4]
i6 1 x[6]
i7 1 x[5]
i8 2 y[1]
i9 1 x[1]
i10 2 y[6]
i11 2 z[5]
i12 2 z[0]
i13 2 y[5]
i14 2 z[4]
i15 2 z[6]
i16 2 y[2]
i17 2 z[3]
i18 1 x[2]
i19 2 z[1]
i20 2 y[4]
i21 2 y[7]
i22 1 x[0]
i23 2 z[7]
o0 bv[0]
c
simplified
  >=
    add
      2 z
      1
    subtract
      1
      or
        1 x
        2 y
