words_train/words_383_SAT.qaiger.qdimacs
p cnf 101 232
a 9 10 11 12 13 14 15 16 0
e 1 2 3 4 5 6 7 8 17 18 19 20 21 22 23 24 25 26 27 28 29 30 31 32 33 34 35 36 37 38 39 40 41 42 43 44 45 46 47 48 49 50 51 52 53 54 55 56 57 58 59 60 61 62 63 64 65 66 67 68 69 70 71 72 73 74 75 76 77 78 79 80 81 82 83 84 85 86 87 88 89 90 91 92 93 94 95 96 97 98 99 100 101 0
20 12 25 0
-20 -25 0
-12 -25 0
19 11 26 0
-19 -26 0
-11 -26 0
18 10 27 0
-18 -27 0
-10 -27 0
17 9 28 0
-17 -28 0
-9 -28 0
-28 -27 29 0
28 -29 0
27 -29 0
-29 -26 30 0
29 -30 0
26 -30 0
-30 -25 31 0
30 -31 0
25 -31 0
21 13 32 0
-21 -32 0
-13 -32 0
-32 -31 33 0
32 -33 0
31 -33 0
22 14 34 0
-22 -34 0
-14 -34 0
-34 -33 35 0
34 -35 0
33 -35 0
23 15 36 0
-23 -36 0
-15 -36 0
-36 -35 37 0
36 -37 0
35 -37 0
36 35 38 0
-36 -38 0
-35 -38 0
38 37 39 0
-38 -39 0
-37 -39 0
-2 -1 40 0
2 -40 0
1 -40 0
-40 -3 41 0
40 -41 0
3 -41 0
-41 -4 42 0
41 -42 0
4 -42 0
-42 -5 43 0
42 -43 0
5 -43 0
-43 -6 44 0
43 -44 0
6 -44 0
-44 -7 45 0
44 -45 0
7 -45 0
44 7 46 0
-44 -46 0
-7 -46 0
46 45 47 0
-46 -47 0
-45 -47 0
47 -39 48 0
-47 -48 0
39 -48 0
30 25 49 0
-30 -49 0
-25 -49 0
49 31 50 0
-49 -50 0
-31 -50 0
41 4 51 0
-41 -51 0
-4 -51 0
51 42 52 0
-51 -52 0
-42 -52 0
52 -50 53 0
-52 -53 0
50 -53 0
29 26 54 0
-29 -54 0
-26 -54 0
54 30 55 0
-54 -55 0
-30 -55 0
28 -1 56 0
-28 -56 0
1 -56 0
56 2 57 0
-56 -57 0
-2 -57 0
57 27 58 0
-57 -58 0
-27 -58 0
58 29 59 0
-58 -59 0
-29 -59 0
40 -3 60 0
-40 -60 0
3 -60 0
-60 59 61 0
60 -61 0
-59 -61 0
61 -55 62 0
-61 -62 0
55 -62 0
62 53 63 0
-62 -63 0
-53 -63 0
-59 40 64 0
59 -64 0
-40 -64 0
64 3 65 0
-64 -65 0
-3 -65 0
65 60 66 0
-65 -66 0
-60 -66 0
66 -63 67 0
-66 -67 0
63 -67 0
32 31 68 0
-32 -68 0
-31 -68 0
68 33 69 0
-68 -69 0
-33 -69 0
42 5 70 0
-42 -70 0
-5 -70 0
70 43 71 0
-70 -71 0
-43 -71 0
-71 69 72 0
71 -72 0
-69 -72 0
-52 50 73 0
52 -73 0
-50 -73 0
73 72 74 0
-73 -74 0
-72 -74 0
-74 67 75 0
74 -75 0
-67 -75 0
71 -69 76 0
-71 -76 0
69 -76 0
34 33 77 0
-34 -77 0
-33 -77 0
77 35 78 0
-77 -78 0
-35 -78 0
43 6 79 0
-43 -79 0
-6 -79 0
79 44 80 0
-79 -80 0
-44 -80 0
80 -78 81 0
-80 -81 0
78 -81 0
81 76 82 0
-81 -82 0
-76 -82 0
-82 75 83 0
82 -83 0
-75 -83 0
-47 39 84 0
47 -84 0
-39 -84 0
-80 78 85 0
80 -85 0
-78 -85 0
85 84 86 0
-85 -86 0
-84 -86 0
-86 83 87 0
86 -87 0
-83 -87 0
87 48 88 0
-87 -88 0
-48 -88 0
24 16 89 0
-24 -89 0
-16 -89 0
-89 45 90 0
89 -90 0
-45 -90 0
89 -45 91 0
-89 -91 0
45 -91 0
91 90 92 0
-91 -92 0
-90 -92 0
-37 8 93 0
37 -93 0
-8 -93 0
37 -8 94 0
-37 -94 0
8 -94 0
94 93 95 0
-94 -95 0
-93 -95 0
95 92 96 0
-95 -96 0
-92 -96 0
-95 -92 97 0
95 -97 0
92 -97 0
97 96 98 0
-97 -98 0
-96 -98 0
98 -88 99 0
-98 -99 0
88 -99 0
-98 88 100 0
98 -100 0
-88 -100 0
100 99 101 0
-100 -101 0
-99 -101 0
-101 0
